(set-logic QF_S)
(declare-fun var_0xINPUT_281195 () String)
(assert (and (= (len var_0xINPUT_281195) 0) (= (len var_0xINPUT_281195) 0) (not (= var_0xINPUT_281195 "CQALcCP5TB"))))
(check-sat var_0xINPUT_281195)